
(set-logic ALL) 

(declare-datatype MyList ((Nil) (Cons (head Real) (tail MyList)) )) 
(declare-fun l0 () MyList) 
(declare-fun l1 () MyList) 
(declare-fun l2 () MyList) 
(declare-fun l3 () MyList) 
(declare-fun i0 () Real) 
(declare-fun i1 () Real) 
(assert (is-Cons l0) )
(assert (is-Cons Nil) )
(assert (and (= l2 Nil) (= l1 l1) (= l0 l2)) )
(assert (or (= l2 l3) (= l0 l0)) )
(assert (not (is-Nil Nil)) )
(assert (not (is-Cons Nil)) )
(assert (= l1 Nil) )
(assert (= l3 l3) )
(check-sat)
